NAME : ../File/prFile/tspFile/tsp_file10.tsp.435.tour
COMMENT : Length = 435
COMMENT : Found by LKH-3 [Keld Helsgaun] Wed Jun 14 17:47:17 2023
TYPE : TOUR
DIMENSION : 30
TOUR_SECTION
1
3
28
27
9
4
22
29
30
12
24
21
18
2
13
15
11
14
26
7
19
5
23
25
16
20
6
8
17
10
-1
EOF
